(set-info :smt-lib-version 2.6)
(set-logic QF_SLIA)
(set-info :source |
Generated by: Georgiy Belyanin, Mikhail Starchak
Generated on: 2026-02-19
Application: Evaluate string solvers on problems featuring combinations of length constraints and string-to-integer conversions
Target solver: CVC5, Z3-Noodler
Time limit: 60.0
Generated benchmarks featuring regular constraints, linear integer constraints over
string lengths and integers converted from strings.
Each benchmark contains from 2 to 4 string variables, which occur in the scope of
str.len and str.to_int functions. The assertions are composed of
— a regular constraint over each variable;
— 1, 2, or 3 linear constraints over string lengths and variables converted to integers.
The benchmarks are split into three categories:
— "random", with integer coefficients ranging from -10 to 10 and constants from -100 to 100;
— "long", with at least one assertion requiring the length of a variable to be more than 1000;
— "z3-hard", which are unsolvable by Z3 in 10s (on a single Intel Core i7-6700 CPU core @ 3.40GHz with 8GB of DDR5 RAM).
|)
(set-info :license "https://creativecommons.org/licenses/by/4.0/")
(set-info :category "random")
(set-info :status unknown)

(declare-const x String)
(declare-const y String)
(declare-const z String)

(assert (>= (str.to_int x) 0))
(assert (>= (str.to_int y) 0))
(assert (>= (str.to_int z) 0))

(assert (str.in_re y (re.++ (re.* (str.to_re "35")) (re.union (re.* (str.to_re "94")) (re.range "6" "9")))))
(assert (str.in_re x (re.++ (re.+ (str.to_re "374")) (str.to_re "840"))))
(assert (str.in_re z (re.union (str.to_re "905") (re.++ (re.union (str.to_re "43") (re.* (str.to_re "84"))) (str.to_re "282")))))

(assert (> (+ (str.to_int x) (str.to_int y) (* (- 9) (str.to_int z))) 82))
(assert (>= (+ (* (- 6) (str.len x)) (* (- 7) (str.len y)) (str.len z)) 10))
(assert (>= (+ (* 7 (str.len x)) (* 4 (str.len y)) (* 6 (str.len z))) 79))

(check-sat)
(exit)
